
# trial numbers:
# 0 = conp/v0
# 1 = conp/v1
# 2 = conp/v2
# 3 = conp/v3
# 4 = conp/v4
# 5 = conp/v4 etypes
# 6 = conp/v4 etypes noslab zneutr
# 7 = conp/v4 etypes ffield

units               real
dimension           3
newton              off
#processors          * * 2
if "$n <= 5" then "boundary p p f" else "boundary p p p"
boundary p p f
atom_style          full

##force field
pair_style          lj/cut/coul/long 4.0
bond_style          harmonic
angle_style         harmonic
kspace_style        pppm 1.0e-6
if "$n <= 5" then "kspace_modify slab 3.0"
kspace_modify slab 3.0
#you can try forcing kspace mesh same xy resolution
#to eliminate spurious differences
#but fix/conp's own internal k meshing isn't controlled :(
#resolutions determined by first running:
#if "$n <= 5" then "kspace_modify mesh 30 27 324 slab 3.0" #elif "$n == 6" "kspace_modify mesh 30 27 144" #elif "$n == 7" "kspace_modify mesh 30 27 250"

##atom definition
read_data           data
Reading data file ...
  orthogonal box = (0.0000000 0.0000000 -44.200000) to (9.8380000 8.5200000 44.200000)
  1 by 1 by 1 MPI processor grid
  reading atoms ...
  432 atoms
  scanning bonds ...
  2 = max bonds/atom
  scanning angles ...
  1 = max angles/atom
  reading bonds ...
  160 bonds
  reading angles ...
  80 angles
Finding 1-2 1-3 1-4 neighbors ...
  special bond factors lj:    0.0      0.0      0.0     
  special bond factors coul:  0.0      0.0      0.0     
     2 = max # of 1-2 neighbors
     1 = max # of 1-3 neighbors
     1 = max # of 1-4 neighbors
     2 = max # of special neighbors
  special bonds CPU = 0.000 seconds
  read_data CPU = 0.006 seconds
pair_coeff   1   1         0.09935850       3.40000000  # CAB CAB
pair_coeff   1   2         0.19419428       3.50000000  # CAB CAC
pair_coeff   1   3         0.07390356       3.38500000  # CAB CG
pair_coeff   1   4         0.09935850       3.35000000  # CAB NAA
pair_coeff   2   2         0.37954900       3.60000000  # CAC CAC
pair_coeff   2   3         0.14444310       3.48500000  # CAC CG
pair_coeff   2   4         0.19419428       3.45000000  # CAC NAA
pair_coeff   3   3         0.05497000       3.37000000  # CG CG
pair_coeff   3   4         0.07390356       3.33500000  # CG NAA
pair_coeff   4   4         0.09935850       3.30000000  # NAA NAA

##replicate cell if noslab zneutr
if "$n == 6" then "replicate 1 1 2" "change_box all z final $(-lz/2) $(lz/2) remap units box" "region pos block EDGE EDGE EDGE EDGE 0 EDGE" "group pos region pos" "variable newz atom lz/2-z" "set group pos z v_newz" "variable molmax   equal 82" "variable molleft  equal 81" "variable molright equal 82" "set mol $(v_molmax+v_molright) mol ${molright}" "set mol $(v_molmax+v_molleft)  mol ${molleft}"

##setting
neighbor            2 bin
group sol type 1 2 4
240 atoms in group sol
variable q atom q
group ele           type 3
192 atoms in group ele
group eleleft       molecule 81
96 atoms in group eleleft
group eleright      molecule 82
96 atoms in group eleright
if "$n != 6" then "group eleall        union eleleft eleright" "compute qleft       eleleft  reduce sum v_q" "compute qright      eleright reduce sum v_q" "compute qall        eleall   reduce sum v_q" "compute tempsl      sol      temp" elif "$n == 6" "group solpos  intersect sol   pos" "group solneg  subtract  sol   solpos" "group elepos  intersect ele   pos" "group eleneg  subtract  ele   elepos" "group eleleftpos  intersect eleleft   pos" "group elerightpos intersect eleright  pos" "group eleleftneg  subtract  eleleft   eleleftpos" "group elerightneg subtract  eleright  elerightpos" "compute qleftpos       eleleftpos  reduce sum v_q" "compute qleftneg       eleleftneg  reduce sum v_q" "compute qrightpos      elerightpos reduce sum v_q" "compute qrightneg      elerightneg reduce sum v_q" "compute qpos           elepos      reduce sum v_q" "compute qneg           eleneg      reduce sum v_q" "compute temppos   solpos temp" "compute tempneg   solneg temp"
group eleall        union eleleft eleright
192 atoms in group eleall
compute qleft       eleleft  reduce sum v_q
compute qright      eleright reduce sum v_q
compute qall        eleall   reduce sum v_q
compute tempsl      sol      temp


run_style           verlet
timestep            1
velocity ele set 0.0 0.0 0.0
fix 0 ele setforce 0.0 0.0 0.0

if "$n == 0" then "fix e all conp/v0 1 1.979 81 82 -0.5 0.5 inv iter" elif "$n == 1"  "fix e all conp/v1 1 1.979 81 82 -0.5 0.5 inv iter" elif "$n == 2"  "fix e all conp/v2 1 1.979 81 82 -0.5 0.5 inv iter" elif "$n == 3"  "fix e all conp/v3 1 1.979 81 82 -0.5 0.5 inv iter" elif "$n == 4"  "fix e all conp/v4 1 1.979 81 82 -0.5 0.5 inv iter" elif "$n == 5"  "fix e all conp/v4 1 1.979 81 82 -0.5 0.5 inv iter etypes 1 3" elif "$n == 6"  "fix e all conp/v4 1 1.979 81 82 -0.5 0.5 inv iter etypes 1 3 noslab zneutr" elif "$n == 7"  "fix e all conp/v4 1 1.979 81 82 -0.5 0.5 inv iter etypes 1 3 ffield" "fix efield all efield 0 0 $(-1.0/lz) "
fix e all conp/v0 1 1.979 81 82 -0.5 0.5 inv iter

fix 1 sol nvt temp 298.0 298.0 100.0
if "$n != 6" then "thermo_style custom step temp c_tempsl c_qleft c_qright c_qall" elif "$n == 6" "thermo_style custom step temp c_temppos c_qleftneg c_qrightneg c_qneg c_qrightpos c_qleftpos c_qpos c_tempneg"
thermo_style custom step temp c_tempsl c_qleft c_qright c_qall
thermo              20

if "$n == 7" then "dump dsol sol atom 20 sol.traj"

if "$n <= 7" then "run 500"
run 500
PPPM initialization ...
  using 12-bit tables for long-range coulomb (src/kspace.cpp:328)
  G vector (1/distance) = 0.76872648
  grid = 27 24 324
  stencil order = 5
  estimated absolute RMS force accuracy = 0.0004048351
  estimated relative force accuracy = 1.2191489e-06
  using double precision MKL FFT
  3d grid and FFT values/proc = 434910 209952
Neighbor list info ...
  update every 1 steps, delay 10 steps, check yes
  max neighbors/atom: 2000, page size: 100000
  master list distance cutoff = 6
  ghost atom cutoff = 6
  binsize = 3, bins = 4 3 30
  1 neighbor lists, perpetual/occasional/extra = 1 0 0
  (1) pair lj/cut/coul/long, perpetual
      attributes: half, newton off
      pair build: half/bin/newtoff
      stencil: half/bin/3d/newtoff
      bin: standard
Per MPI rank memory allocation (min/avg/max) = 42.95 | 42.95 | 42.95 Mbytes
Step Temp c_tempsl c_qleft c_qright c_qall 
       0            0            0            0            0            0 
      20    1009.3175      1820.15   0.02947291 -0.048264946 -0.018792036 
      40    877.23495    1581.9593  0.016514656 -0.027315125 -0.010800469 
      60    745.40659     1344.227   -0.0127227 0.0053247073 -0.0073979928 
      80    667.01892    1202.8667 -0.039085748  0.029054824 -0.010030924 
     100    603.94191     1089.117 -0.040869194  0.023611502 -0.017257692 
     120    526.64259    949.71948 -0.028819515 0.0057401161 -0.023079399 
     140    481.15129    867.68287 -0.028791905 0.0025792303 -0.026212675 
     160     391.5768    706.14896 -0.024664284 -0.00050388152 -0.025168165 
     180    365.04213    658.29774 -0.022506506 6.8490732e-05 -0.022438016 
     200    334.70278    603.58534 -0.025861132 0.0052759393 -0.020585193 
     220    323.09573     582.6538  -0.02971896  0.009760476 -0.019958484 
     240    298.97142    539.14929 -0.028632856  0.012252502 -0.016380354 
     260     276.0527    497.81889 -0.029753592  0.019152134 -0.010601458 
     280    267.42069    482.25237 -0.029146458   0.02525723 -0.003889228 
     300    250.31055    451.39684 -0.028974213  0.028677604 -0.00029660842 
     320    243.09743    438.38909 -0.026173962    0.0258111 -0.00036286226 
     340    229.81023    414.42765 -0.024176106  0.021987556 -0.0021885495 
     360    220.92015    398.39575 -0.015324763  0.011396097 -0.003928666 
     380    207.28075    373.79917 -0.0063147069 0.0018726804 -0.0044420264 
     400    192.93518    347.92913  0.002524047 -0.0060269905 -0.0035029435 
     420    180.92856    326.27702 0.0044843377 -0.0057196559 -0.0012353182 
     440    170.65046    307.74205 0.0082119713 -0.0063537382 0.0018582331 
     460    174.09009    313.94488 0.0097618445 -0.0039574582 0.0058043862 
     480    169.53816    305.73618  0.011034676 -0.0038229846  0.007211691 
     500    168.59235    304.03055 0.0052760707 0.0013219325 0.0065980032 
Loop time of 97.2672 on 1 procs for 500 steps with 432 atoms

Performance: 0.444 ns/day, 54.037 hours/ns, 5.140 timesteps/s
157.9% CPU use with 1 MPI tasks x no OpenMP threads

MPI task timing breakdown:
Section |  min time  |  avg time  |  max time  |%varavg| %total
---------------------------------------------------------------
Pair    | 0.18977    | 0.18977    | 0.18977    |   0.0 |  0.20
Bond    | 0.012421   | 0.012421   | 0.012421   |   0.0 |  0.01
Kspace  | 40.336     | 40.336     | 40.336     |   0.0 | 41.47
Neigh   | 0.014903   | 0.014903   | 0.014903   |   0.0 |  0.02
Comm    | 0.0081129  | 0.0081129  | 0.0081129  |   0.0 |  0.01
Output  | 0.015354   | 0.015354   | 0.015354   |   0.0 |  0.02
Modify  | 56.686     | 56.686     | 56.686     |   0.0 | 58.28
Other   |            | 0.005322   |            |       |  0.01

Nlocal:        432.000 ave         432 max         432 min
Histogram: 1 0 0 0 0 0 0 0 0 0
Nghost:        1861.00 ave        1861 max        1861 min
Histogram: 1 0 0 0 0 0 0 0 0 0
Neighs:        18334.0 ave       18334 max       18334 min
Histogram: 1 0 0 0 0 0 0 0 0 0

Total # of neighbors = 18334
Ave neighs/atom = 42.439815
Ave special neighs/atom = 1.1111111
Neighbor list builds = 9
Dangerous builds = 0
Total wall time: 0:03:45
