
# trial numbers:
# 0 = conp/v0
# 1 = conp/v1
# 2 = conp/v2
# 3 = conp/v3
# 4 = conp/v4
# 5 = conp/v4 etypes
# 6 = conp/v4 etypes noslab zneutr
# 7 = conp/v4 etypes ffield

units               real
dimension           3
newton              off
#processors          * * 2
if "$n <= 5" then "boundary p p f" else "boundary p p p"
boundary p p f
atom_style          full

##force field
pair_style          lj/cut/coul/long 4.0
bond_style          harmonic
angle_style         harmonic
kspace_style        pppm 1.0e-6
if "$n <= 5" then "kspace_modify slab 3.0"
kspace_modify slab 3.0
#you can try forcing kspace mesh same xy resolution
#to eliminate spurious differences
#but fix/conp's own internal k meshing isn't controlled :(
#resolutions determined by first running:
#if "$n <= 5" then "kspace_modify mesh 30 27 324 slab 3.0" #elif "$n == 6" "kspace_modify mesh 30 27 144" #elif "$n == 7" "kspace_modify mesh 30 27 250"

##atom definition
read_data           data
Reading data file ...
  orthogonal box = (0.0000000 0.0000000 -44.200000) to (9.8380000 8.5200000 44.200000)
  1 by 1 by 1 MPI processor grid
  reading atoms ...
  432 atoms
  scanning bonds ...
  2 = max bonds/atom
  scanning angles ...
  1 = max angles/atom
  reading bonds ...
  160 bonds
  reading angles ...
  80 angles
Finding 1-2 1-3 1-4 neighbors ...
  special bond factors lj:    0.0      0.0      0.0     
  special bond factors coul:  0.0      0.0      0.0     
     2 = max # of 1-2 neighbors
     1 = max # of 1-3 neighbors
     1 = max # of 1-4 neighbors
     2 = max # of special neighbors
  special bonds CPU = 0.000 seconds
  read_data CPU = 0.006 seconds
pair_coeff   1   1         0.09935850       3.40000000  # CAB CAB
pair_coeff   1   2         0.19419428       3.50000000  # CAB CAC
pair_coeff   1   3         0.07390356       3.38500000  # CAB CG
pair_coeff   1   4         0.09935850       3.35000000  # CAB NAA
pair_coeff   2   2         0.37954900       3.60000000  # CAC CAC
pair_coeff   2   3         0.14444310       3.48500000  # CAC CG
pair_coeff   2   4         0.19419428       3.45000000  # CAC NAA
pair_coeff   3   3         0.05497000       3.37000000  # CG CG
pair_coeff   3   4         0.07390356       3.33500000  # CG NAA
pair_coeff   4   4         0.09935850       3.30000000  # NAA NAA

##replicate cell if noslab zneutr
if "$n == 6" then "replicate 1 1 2" "change_box all z final $(-lz/2) $(lz/2) remap units box" "region pos block EDGE EDGE EDGE EDGE 0 EDGE" "group pos region pos" "variable newz atom lz/2-z" "set group pos z v_newz" "variable molmax   equal 82" "variable molleft  equal 81" "variable molright equal 82" "set mol $(v_molmax+v_molright) mol ${molright}" "set mol $(v_molmax+v_molleft)  mol ${molleft}"

##setting
neighbor            2 bin
group sol type 1 2 4
240 atoms in group sol
variable q atom q
group ele           type 3
192 atoms in group ele
group eleleft       molecule 81
96 atoms in group eleleft
group eleright      molecule 82
96 atoms in group eleright
if "$n != 6" then "group eleall        union eleleft eleright" "compute qleft       eleleft  reduce sum v_q" "compute qright      eleright reduce sum v_q" "compute qall        eleall   reduce sum v_q" "compute tempsl      sol      temp" elif "$n == 6" "group solpos  intersect sol   pos" "group solneg  subtract  sol   solpos" "group elepos  intersect ele   pos" "group eleneg  subtract  ele   elepos" "group eleleftpos  intersect eleleft   pos" "group elerightpos intersect eleright  pos" "group eleleftneg  subtract  eleleft   eleleftpos" "group elerightneg subtract  eleright  elerightpos" "compute qleftpos       eleleftpos  reduce sum v_q" "compute qleftneg       eleleftneg  reduce sum v_q" "compute qrightpos      elerightpos reduce sum v_q" "compute qrightneg      elerightneg reduce sum v_q" "compute qpos           elepos      reduce sum v_q" "compute qneg           eleneg      reduce sum v_q" "compute temppos   solpos temp" "compute tempneg   solneg temp"
group eleall        union eleleft eleright
192 atoms in group eleall
compute qleft       eleleft  reduce sum v_q
compute qright      eleright reduce sum v_q
compute qall        eleall   reduce sum v_q
compute tempsl      sol      temp


run_style           verlet
timestep            1
velocity ele set 0.0 0.0 0.0
fix 0 ele setforce 0.0 0.0 0.0

if "$n == 0" then "fix e all conp/v0 1 1.979 81 82 -0.5 0.5 inv iter" elif "$n == 1"  "fix e all conp/v1 1 1.979 81 82 -0.5 0.5 inv iter" elif "$n == 2"  "fix e all conp/v2 1 1.979 81 82 -0.5 0.5 inv iter" elif "$n == 3"  "fix e all conp/v3 1 1.979 81 82 -0.5 0.5 inv iter" elif "$n == 4"  "fix e all conp/v4 1 1.979 81 82 -0.5 0.5 inv iter" elif "$n == 5"  "fix e all conp/v4 1 1.979 81 82 -0.5 0.5 inv iter etypes 1 3" elif "$n == 6"  "fix e all conp/v4 1 1.979 81 82 -0.5 0.5 inv iter etypes 1 3 noslab zneutr" elif "$n == 7"  "fix e all conp/v4 1 1.979 81 82 -0.5 0.5 inv iter etypes 1 3 ffield" "fix efield all efield 0 0 $(-1.0/lz) "
fix e all conp/v2 1 1.979 81 82 -0.5 0.5 inv iter

fix 1 sol nvt temp 298.0 298.0 100.0
if "$n != 6" then "thermo_style custom step temp c_tempsl c_qleft c_qright c_qall" elif "$n == 6" "thermo_style custom step temp c_temppos c_qleftneg c_qrightneg c_qneg c_qrightpos c_qleftpos c_qpos c_tempneg"
thermo_style custom step temp c_tempsl c_qleft c_qright c_qall
thermo              20

if "$n == 7" then "dump dsol sol atom 20 sol.traj"

if "$n <= 7" then "run 500"
run 500
PPPM initialization ...
  using 12-bit tables for long-range coulomb (src/kspace.cpp:328)
  G vector (1/distance) = 0.76872648
  grid = 27 24 324
  stencil order = 5
  estimated absolute RMS force accuracy = 0.0004048351
  estimated relative force accuracy = 1.2191489e-06
  using double precision MKL FFT
  3d grid and FFT values/proc = 434910 209952
Neighbor list info ...
  update every 1 steps, delay 10 steps, check yes
  max neighbors/atom: 2000, page size: 100000
  master list distance cutoff = 6
  ghost atom cutoff = 6
  binsize = 3, bins = 4 3 30
  1 neighbor lists, perpetual/occasional/extra = 1 0 0
  (1) pair lj/cut/coul/long, perpetual
      attributes: half, newton off
      pair build: half/bin/newtoff
      stencil: half/bin/3d/newtoff
      bin: standard
Per MPI rank memory allocation (min/avg/max) = 42.95 | 42.95 | 42.95 Mbytes
Step Temp c_tempsl c_qleft c_qright c_qall 
       0            0            0            0            0            0 
      20    1009.3506    1820.2096  0.038869858 -0.038869858 -2.4767243e-18 
      40    877.26564    1582.0146   0.02191619  -0.02191619 7.0685746e-17 
      60    745.41032    1344.2337 -0.0090153812 0.0090153812 1.7221874e-17 
      80    667.01157    1202.8535 -0.034059186  0.034059186 -4.3818454e-16 
     100     603.9197    1089.0769 -0.032225218  0.032225218 1.3081153e-16 
     120    526.64106    949.71673 -0.017274532  0.017274532 3.9107088e-17 
     140    481.20761    867.78443 -0.015699155  0.015699155 1.0754015e-16 
     160    391.54127    706.08489 -0.012119137  0.012119137 1.7719421e-16 
     180    365.03587    658.28644 -0.011337038  0.011337038 1.3227267e-16 
     200    334.80196    603.76421  -0.01561614   0.01561614 6.3573211e-17 
     220    323.16109    582.77168 -0.019814456  0.019814456 2.8487412e-17 
     240    298.97731    539.15992  -0.02054922   0.02054922 4.5363697e-17 
     260     275.9312    497.59978 -0.024564567  0.024564567 -1.3841196e-16 
     280    267.31207     482.0565 -0.027315323  0.027315323 -3.0337671e-16 
     300     250.3959    451.55076 -0.028932649  0.028932649 -2.9660722e-16 
     320    243.26109    438.68422 -0.026040138  0.026040138 -1.1183884e-16 
     340    229.78418    414.38068 -0.023031541  0.023031541 -1.9908662e-17 
     360    220.95331    398.45555 -0.013236903  0.013236903 -4.3720453e-17 
     380    207.37915    373.97662 -0.0039112013 0.0039112013 1.8184103e-17 
     400    193.01712    348.07689  0.004477178 -0.004477178 -1.2544812e-16 
     420    180.88629    326.20081 0.0053322643 -0.0053322643 -4.3029274e-19 
     440    170.66926    307.77595 0.0075090917 -0.0075090917 1.7242711e-16 
     460    174.06955    313.90785 0.0070298207 -0.0070298207 -1.0845749e-16 
     480    169.25694    305.22904 0.0074645539 -0.0074645539 -3.5802389e-17 
     500    168.46458    303.80014 0.0018948115 -0.0018948115 -3.8614538e-17 
Loop time of 101.394 on 1 procs for 500 steps with 432 atoms

Performance: 0.426 ns/day, 56.330 hours/ns, 4.931 timesteps/s
153.8% CPU use with 1 MPI tasks x no OpenMP threads

MPI task timing breakdown:
Section |  min time  |  avg time  |  max time  |%varavg| %total
---------------------------------------------------------------
Pair    | 0.22297    | 0.22297    | 0.22297    |   0.0 |  0.22
Bond    | 0.013466   | 0.013466   | 0.013466   |   0.0 |  0.01
Kspace  | 44.543     | 44.543     | 44.543     |   0.0 | 43.93
Neigh   | 0.017138   | 0.017138   | 0.017138   |   0.0 |  0.02
Comm    | 0.0086803  | 0.0086803  | 0.0086803  |   0.0 |  0.01
Output  | 0.019538   | 0.019538   | 0.019538   |   0.0 |  0.02
Modify  | 56.564     | 56.564     | 56.564     |   0.0 | 55.79
Other   |            | 0.005371   |            |       |  0.01

Nlocal:        432.000 ave         432 max         432 min
Histogram: 1 0 0 0 0 0 0 0 0 0
Nghost:        1861.00 ave        1861 max        1861 min
Histogram: 1 0 0 0 0 0 0 0 0 0
Neighs:        18337.0 ave       18337 max       18337 min
Histogram: 1 0 0 0 0 0 0 0 0 0

Total # of neighbors = 18337
Ave neighs/atom = 42.446759
Ave special neighs/atom = 1.1111111
Neighbor list builds = 9
Dangerous builds = 0
Total wall time: 0:03:41
