
# trial numbers:
# 0 = conp/v0
# 1 = conp/v1
# 2 = conp/v2
# 3 = conp/v3
# 4 = conp/v4
# 5 = conp/v4 etypes
# 6 = conp/v4 etypes ffield
# 7 = conp/v4 etypes noslab zneutr

units               real
dimension           3
newton              off
#processors          * * 2
if "$n <= 5" then "boundary p p f" else "boundary p p p"
boundary p p f
atom_style          full

##force field
pair_style          lj/cut/coul/long 4.0
bond_style          harmonic
angle_style         harmonic
kspace_style        pppm 1.0e-6
if "$n <= 5" then "kspace_modify slab 3.0"
kspace_modify slab 3.0

##atom definition
read_data           data
Reading data file ...
  orthogonal box = (0.0000000 0.0000000 -44.200000) to (9.8380000 8.5200000 44.200000)
  1 by 1 by 1 MPI processor grid
  reading atoms ...
  432 atoms
  scanning bonds ...
  2 = max bonds/atom
  scanning angles ...
  1 = max angles/atom
  reading bonds ...
  160 bonds
  reading angles ...
  80 angles
Finding 1-2 1-3 1-4 neighbors ...
  special bond factors lj:    0.0      0.0      0.0     
  special bond factors coul:  0.0      0.0      0.0     
     2 = max # of 1-2 neighbors
     1 = max # of 1-3 neighbors
     1 = max # of 1-4 neighbors
     2 = max # of special neighbors
  special bonds CPU = 0.001 seconds
  read_data CPU = 0.012 seconds
pair_coeff   1   1         0.09935850       3.40000000  # CAB CAB
pair_coeff   1   2         0.19419428       3.50000000  # CAB CAC
pair_coeff   1   3         0.07390356       3.38500000  # CAB CG
pair_coeff   1   4         0.09935850       3.35000000  # CAB NAA
pair_coeff   2   2         0.37954900       3.60000000  # CAC CAC
pair_coeff   2   3         0.14444310       3.48500000  # CAC CG
pair_coeff   2   4         0.19419428       3.45000000  # CAC NAA
pair_coeff   3   3         0.05497000       3.37000000  # CG CG
pair_coeff   3   4         0.07390356       3.33500000  # CG NAA
pair_coeff   4   4         0.09935850       3.30000000  # NAA NAA

##replicate cell if noslab zneutr
if "$n == 7" then "replicate 1 1 2" "change_box all z final $(-lz/2) $(lz/2) remap units box" "region pos block EDGE EDGE EDGE EDGE 0 EDGE" "group pos region pos" "variable newz atom lz/2-z" "set group pos z v_newz" "variable molmax   equal 82" "variable molleft  equal 81" "variable molright equal 82" "set mol $(v_molmax+v_molright) mol ${molleft} " "set mol $(v_molmax+v_molleft)  mol ${molright}"

##setting
neighbor            2 bin
group sol type 1 2 4
240 atoms in group sol
compute tempsl      sol      temp
variable q atom q
group ele           type 3
192 atoms in group ele
group eleleft       molecule 81
96 atoms in group eleleft
group eleright      molecule 82
96 atoms in group eleright
if "$n != 7" then "group eleall        union eleleft eleright" "compute qleft       eleleft  reduce sum v_q" "compute qright      eleright reduce sum v_q" "compute qall        eleall   reduce sum v_q" elif "$n == 7" "group elepos  intersect ele   pos" "group eleneg  subtract  ele   elepos" "group eleleftpos  intersect eleleft   pos" "group elerightpos intersect eleright  pos" "group eleleftneg  subtract  eleleft   eleleftpos" "group elerightneg subtract  eleright  elerightpos" "compute qleftpos       eleleftpos  reduce sum v_q" "compute qleftneg       eleleftneg  reduce sum v_q" "compute qrightpos      elerightpos reduce sum v_q" "compute qrightneg      elerightneg reduce sum v_q" "compute qpos           elepos      reduce sum v_q" "compute qneg           eleneg      reduce sum v_q"
group eleall        union eleleft eleright
192 atoms in group eleall
compute qleft       eleleft  reduce sum v_q
compute qright      eleright reduce sum v_q
compute qall        eleall   reduce sum v_q

run_style           verlet
timestep            1
velocity ele set 0.0 0.0 0.0
fix 0 ele setforce 0.0 0.0 0.0

if "$n == 0" then "fix e all conp/v0 1 1.979 81 82 -0.5 0.5 inv iter" elif "$n == 1"  "fix e all conp/v1 1 1.979 81 82 -0.5 0.5 inv iter" elif "$n == 2"  "fix e all conp/v2 1 1.979 81 82 -0.5 0.5 inv iter" elif "$n == 3"  "fix e all conp/v3 1 1.979 81 82 -0.5 0.5 inv iter" elif "$n == 4"  "fix e all conp/v4 1 1.979 81 82 -0.5 0.5 inv iter" elif "$n == 5"  "fix e all conp/v4 1 1.979 81 82 -0.5 0.5 inv iter etypes 1 3" elif "$n == 6"  "fix e all conp/v4 1 1.979 81 82 -0.5 0.5 inv iter etypes 1 3 ffield" "fix efield all efield 0 0 $(-1.0/lz) " elif "$n == 7"  "fix e all conp/v4 1 1.979 81 82 -0.5 0.5 inv iter etypes 1 3 noslab zneutr"
fix e all conp/v1 1 1.979 81 82 -0.5 0.5 inv iter

fix 1 sol nvt temp 298.0 298.0 100.0
if "$n != 7" then "thermo_style custom step temp c_tempsl c_qleft c_qright c_qall" elif "$n == 7" "thermo_style custom step temp c_tempsl c_qleftneg c_qrightneg c_qneg c_qrightpos c_qleftpos c_qpos"
thermo_style custom step temp c_tempsl c_qleft c_qright c_qall
thermo              10
run 200
PPPM initialization ...
  using 12-bit tables for long-range coulomb (src/kspace.cpp:328)
  G vector (1/distance) = 0.76872648
  grid = 27 24 324
  stencil order = 5
  estimated absolute RMS force accuracy = 0.0004048351
  estimated relative force accuracy = 1.2191489e-06
  using double precision MKL FFT
  3d grid and FFT values/proc = 434910 209952
Neighbor list info ...
  update every 1 steps, delay 10 steps, check yes
  max neighbors/atom: 2000, page size: 100000
  master list distance cutoff = 6
  ghost atom cutoff = 6
  binsize = 3, bins = 4 3 30
  1 neighbor lists, perpetual/occasional/extra = 1 0 0
  (1) pair lj/cut/coul/long, perpetual
      attributes: half, newton off
      pair build: half/bin/newtoff
      stencil: half/bin/3d/newtoff
      bin: standard
Per MPI rank memory allocation (min/avg/max) = 42.95 | 42.95 | 42.95 Mbytes
Step Temp c_tempsl c_qleft c_qright c_qall 
       0            0            0            0            0            0 
      10    872.56616    1573.5398  0.038993351 -0.038993351 2.1323546e-16 
      20    1009.3506    1820.2096  0.038869763 -0.038869763 -2.6007977e-16 
      30    960.43759    1732.0025  0.029730835 -0.029730835 4.5238336e-16 
      40    877.26564    1582.0146  0.021916086 -0.021916086 7.1887686e-17 
      50     818.6182    1476.2529 0.0053348246 -0.0053348246 8.219523e-17 
      60    745.41032    1344.2337 -0.0090154966 0.0090154966 2.6850944e-19 
      70    724.49302    1306.5125 -0.023527075  0.023527075 -1.9489889e-16 
      80    667.01157    1202.8535 -0.034059314  0.034059314 -1.1660594e-16 
      90    640.50294    1155.0492 -0.034997273  0.034997273 -2.0750274e-16 
     100     603.9197    1089.0769 -0.032225354  0.032225354 3.0030198e-16 
     110    564.82114    1018.5687 -0.023432357  0.023432357 1.9370966e-16 
     120    526.64106    949.71671 -0.017274672  0.017274672 1.7790233e-16 
     130    524.68467    946.18867 -0.015085918  0.015085918 2.3328134e-17 
     140     481.2076    867.78442 -0.015699298  0.015699298 1.1390476e-16 
     150    436.86389     787.8173 -0.015158637  0.015158637 3.6821877e-16 
     160    391.54129    706.08492 -0.012119283  0.012119283 2.2800772e-16 
     170    389.94325    703.20309 -0.010652175  0.010652175 1.8817515e-16 
     180    365.03587    658.28645 -0.011337192  0.011337192 2.5649513e-16 
     190    340.70626     614.4117 -0.013936824  0.013936824 9.583839e-17 
     200    334.80196    603.76421 -0.015616308  0.015616308 3.1929754e-17 
Loop time of 65.4092 on 1 procs for 200 steps with 432 atoms

Performance: 0.264 ns/day, 90.846 hours/ns, 3.058 timesteps/s
208.5% CPU use with 1 MPI tasks x no OpenMP threads

MPI task timing breakdown:
Section |  min time  |  avg time  |  max time  |%varavg| %total
---------------------------------------------------------------
Pair    | 0.12045    | 0.12045    | 0.12045    |   0.0 |  0.18
Bond    | 0.0066302  | 0.0066302  | 0.0066302  |   0.0 |  0.01
Kspace  | 30.75      | 30.75      | 30.75      |   0.0 | 47.01
Neigh   | 0.0083377  | 0.0083377  | 0.0083377  |   0.0 |  0.01
Comm    | 0.0061119  | 0.0061119  | 0.0061119  |   0.0 |  0.01
Output  | 0.078205   | 0.078205   | 0.078205   |   0.0 |  0.12
Modify  | 34.435     | 34.435     | 34.435     |   0.0 | 52.65
Other   |            | 0.003674   |            |       |  0.01

Nlocal:        432.000 ave         432 max         432 min
Histogram: 1 0 0 0 0 0 0 0 0 0
Nghost:        1863.00 ave        1863 max        1863 min
Histogram: 1 0 0 0 0 0 0 0 0 0
Neighs:        18308.0 ave       18308 max       18308 min
Histogram: 1 0 0 0 0 0 0 0 0 0

Total # of neighbors = 18308
Ave neighs/atom = 42.379630
Ave special neighs/atom = 1.1111111
Neighbor list builds = 5
Dangerous builds = 0
Total wall time: 0:03:19
